n = 20
Q1 = [0 0 0 15 25 41 0 0 0 0 29 0 37 45 0 33 0 0 50 44; 0 0 0 0 0 6 22 50 39 48 42 0 26 0 0 0 9 15 0 0; 0 0 0 40 34 0 35 0 0 0 0 16 0 33 32 0 0 16 0 0; 0 0 0 0 0 0 8 10 38 0 0 0 19 0 0 0 0 0 0 31; 0 0 0 0 0 38 17 0 48 29 0 35 0 48 0 25 0 7 39 7; 0 0 0 0 0 0 0 0 13 8 0 20 18 40 0 0 30 0 16 0; 0 0 0 0 0 0 0 34 34 28 0 12 0 0 43 0 0 0 48 0; 0 0 0 0 0 0 0 0 20 22 0 39 0 0 0 6 24 31 7 23; 0 0 0 0 0 0 0 0 0 10 0 50 9 6 0 0 42 24 0 0; 0 0 0 0 0 0 0 0 0 0 0 31 38 0 0 39 36 44 0 0; 0 0 0 0 0 0 0 0 0 0 0 0 0 0 29 27 22 39 0 8; 0 0 0 0 0 0 0 0 0 0 0 0 0 31 0 15 0 14 0 0; 0 0 0 0 0 0 0 0 0 0 0 0 0 13 0 0 7 0 0 37; 0 0 0 0 0 0 0 0 0 0 0 0 0 0 8 0 0 0 12 0; 0 0 0 0 0 0 0 0 0 0 0 0 0 0 0 48 39 0 0 0; 0 0 0 0 0 0 0 0 0 0 0 0 0 0 0 0 0 50 0 0; 0 0 0 0 0 0 0 0 0 0 0 0 0 0 0 0 0 10 18 40; 0 0 0 0 0 0 0 0 0 0 0 0 0 0 0 0 0 0 35 0; 0 0 0 0 0 0 0 0 0 0 0 0 0 0 0 0 0 0 0 41; 0 0 0 0 0 0 0 0 0 0 0 0 0 0 0 0 0 0 0 0]
Q2 = [0.0 0.0 0.0 38.0 15.0 5.0 0.0 0.0 0.0 0.0 16.0 0.0 6.0 3.0 0.0 17.0 0.0 0.0 0.0 2.0; 0.0 0.0 0.0 0.0 0.0 47.0 49.0 0.0 4.0 2.0 3.0 0.0 1.0 0.0 0.0 0.0 43.0 37.0 0.0 0.0; 0.0 0.0 0.0 8.0 0.0 0.0 15.0 0.0 0.0 0.0 0.0 44.0 0.0 6.0 12.0 0.0 0.0 50.0 0.0 0.0; 0.0 0.0 0.0 0.0 0.0 0.0 43.0 45.0 11.0 0.0 0.0 0.0 41.0 0.0 0.0 0.0 0.0 0.0 0.0 0.0; 0.0 0.0 0.0 0.0 0.0 5.0 50.0 0.0 1.0 12.0 0.0 15.0 0.0 2.0 0.0 18.0 0.0 46.0 7.0 46.0; 0.0 0.0 0.0 0.0 0.0 0.0 0.0 0.0 47.0 42.0 0.0 35.0 36.0 10.0 0.0 0.0 4.0 0.0 46.0 0.0; 0.0 0.0 0.0 0.0 0.0 0.0 0.0 15.0 10.0 22.0 0.0 41.0 0.0 0.0 5.0 0.0 0.0 0.0 2.0 0.0; 0.0 0.0 0.0 0.0 0.0 0.0 0.0 0.0 40.0 35.0 0.0 5.0 0.0 0.0 0.0 46.0 46.0 18.0 44.0 41.0; 0.0 0.0 0.0 0.0 0.0 0.0 0.0 0.0 0.0 43.0 0.0 0.0 48.0 48.0 0.0 0.0 4.0 44.0 0.0 0.0; 0.0 0.0 0.0 0.0 0.0 0.0 0.0 0.0 0.0 0.0 0.0 6.0 1.0 0.0 0.0 5.0 13.0 6.0 0.0 0.0; 0.0 0.0 0.0 0.0 0.0 0.0 0.0 0.0 0.0 0.0 0.0 0.0 0.0 0.0 10.0 8.0 42.0 10.0 0.0 50.0; 0.0 0.0 0.0 0.0 0.0 0.0 0.0 0.0 0.0 0.0 0.0 0.0 0.0 13.0 0.0 44.0 0.0 40.0 0.0 0.0; 0.0 0.0 0.0 0.0 0.0 0.0 0.0 0.0 0.0 0.0 0.0 0.0 0.0 42.0 0.0 0.0 48.0 0.0 0.0 6.0; 0.0 0.0 0.0 0.0 0.0 0.0 0.0 0.0 0.0 0.0 0.0 0.0 0.0 0.0 48.0 0.0 0.0 0.0 45.0 0.0; 0.0 0.0 0.0 0.0 0.0 0.0 0.0 0.0 0.0 0.0 0.0 0.0 0.0 0.0 0.0 1.0 11.0 0.0 0.0 0.0; 0.0 0.0 0.0 0.0 0.0 0.0 0.0 0.0 0.0 0.0 0.0 0.0 0.0 0.0 0.0 0.0 0.0 0.0 0.0 0.0; 0.0 0.0 0.0 0.0 0.0 0.0 0.0 0.0 0.0 0.0 0.0 0.0 0.0 0.0 0.0 0.0 0.0 44.0 46.0 6.0; 0.0 0.0 0.0 0.0 0.0 0.0 0.0 0.0 0.0 0.0 0.0 0.0 0.0 0.0 0.0 0.0 0.0 0.0 13.0 0.0; 0.0 0.0 0.0 0.0 0.0 0.0 0.0 0.0 0.0 0.0 0.0 0.0 0.0 0.0 0.0 0.0 0.0 0.0 0.0 6.0; 0.0 0.0 0.0 0.0 0.0 0.0 0.0 0.0 0.0 0.0 0.0 0.0 0.0 0.0 0.0 0.0 0.0 0.0 0.0 0.0]
Q3 = [0 71 71 6 24 11 71 71 71 71 0 71 15 11 71 19 71 71 16 20; 0 0 71 71 71 13 0 1 10 17 14 71 45 71 71 71 16 13 71 71; 0 0 0 15 41 71 7 71 71 71 71 4 71 25 18 71 71 2 71 71; 0 0 0 0 71 71 7 0 8 71 71 71 2 71 71 71 71 71 71 66; 0 0 0 0 0 18 4 71 7 20 71 1 71 16 71 23 71 11 20 9; 0 0 0 0 0 0 71 71 8 14 71 6 7 0 71 71 70 71 8 71; 0 0 0 0 0 0 0 13 8 0 71 7 71 71 7 71 71 71 20 71; 0 0 0 0 0 0 0 0 5 0 71 6 71 71 71 12 1 21 16 5; 0 0 0 0 0 0 0 0 0 0 71 14 0 14 71 71 7 3 71 71; 0 0 0 0 0 0 0 0 0 0 71 27 23 71 71 27 14 4 71 71; 0 0 0 0 0 0 0 0 0 0 0 71 71 71 24 67 0 15 71 5; 0 0 0 0 0 0 0 0 0 0 0 0 71 0 71 3 71 12 71 71; 0 0 0 0 0 0 0 0 0 0 0 0 0 1 71 71 16 71 71 10; 0 0 0 0 0 0 0 0 0 0 0 0 0 0 3 71 71 71 9 71; 0 0 0 0 0 0 0 0 0 0 0 0 0 0 0 8 12 71 71 71; 0 0 0 0 0 0 0 0 0 0 0 0 0 0 0 0 71 20 71 71; 0 0 0 0 0 0 0 0 0 0 0 0 0 0 0 0 0 7 5 17; 0 0 0 0 0 0 0 0 0 0 0 0 0 0 0 0 0 0 5 71; 0 0 0 0 0 0 0 0 0 0 0 0 0 0 0 0 0 0 0 15; 0 0 0 0 0 0 0 0 0 0 0 0 0 0 0 0 0 0 0 0]
